
Gurobi 9.0.2 (win64) logging started Sat Oct 10 13:49:01 2020

Changed value of parameter logfile to result\v6.2-20201010T1221\scenario_2030_eff080_cab0000.log
   Prev:   Default: 
Gurobi Optimizer version 9.0.2 build v9.0.2rc0 (win64)
Optimize a model with 1384150 rows, 884815 columns and 3912195 nonzeros
Model fingerprint: 0x51de80c3
Coefficient statistics:
  Matrix range     [1e-07, 3e+05]
  Objective range  [1e+00, 1e+00]
  Bounds range     [0e+00, 0e+00]
  RHS range        [2e-05, 3e+08]
Warning: Model contains large matrix coefficient range
         Consider reformulating model or setting NumericFocus parameter
         to avoid numerical issues.

Concurrent LP optimizer: primal simplex, dual simplex, and barrier
Showing barrier log only...

Presolve removed 1138075 rows and 656242 columns
Presolve time: 3.51s
Presolved: 246075 rows, 342439 columns, 874418 nonzeros

Ordering time: 0.12s

Barrier statistics:
 Dense cols : 8
 AA' NZ     : 7.669e+05
 Factor NZ  : 4.246e+06 (roughly 270 MBytes of memory)
 Factor Ops : 1.048e+08 (less than 1 second per iteration)
 Threads    : 30

                  Objective                Residual
Iter       Primal          Dual         Primal    Dual     Compl     Time
   0  -1.81694341e+16 -1.58517389e+15  5.65e+06 1.56e+04  2.18e+12     4s
   1  -2.24241135e+15 -1.58335183e+15  6.95e+05 4.91e+06  6.80e+11     5s
   2  -1.28995479e+15 -1.27926699e+15  3.99e+05 6.88e+05  1.87e+11     5s
   3  -4.04777055e+14 -1.04775469e+15  1.24e+05 1.90e+05  5.77e+10     5s
   4  -7.78674070e+13 -5.65874152e+14  2.29e+04 2.96e+04  1.06e+10     6s
   5  -3.04932623e+13 -4.60509772e+14  9.33e+03 2.04e+04  5.58e+09     6s
   6  -1.63248751e+13 -3.20409347e+14  5.12e+03 1.09e+04  3.07e+09     6s
   7  -7.58227492e+12 -1.75119995e+14  2.47e+03 2.98e+03  1.16e+09     6s
   8  -2.20899501e+12 -8.47795000e+13  8.22e+02 4.34e+02  3.13e+08     6s
   9   4.29893152e+11 -1.67031459e+13  6.08e+00 5.62e+00  2.62e+07     7s
  10   2.11015553e+11 -1.50070194e+12  9.76e-01 4.41e-01  2.56e+06     7s
  11   1.05257471e+11 -6.13220844e+11  4.10e-01 1.52e-01  1.07e+06     7s
  12   4.18546505e+10 -3.04447107e+11  1.25e-01 5.99e-02  5.10e+05     8s
  13   2.58251963e+10 -1.69583618e+11  6.59e-02 1.81e-02  2.87e+05     8s
  14   1.32466774e+10 -9.67980811e+10  2.24e-02 5.59e-09  1.61e+05     8s
  15   1.02374689e+10 -5.53497220e+10  1.35e-02 5.59e-09  9.62e+04     8s
  16   9.99545781e+09 -1.67045248e+10  1.28e-02 7.45e-09  3.93e+04     9s
  17   6.65155268e+09 -4.89710926e+09  3.34e-03 5.59e-09  1.70e+04     9s
  18   5.61387009e+09  5.67261351e+08  1.15e-03 5.59e-09  7.40e+03     9s
  19   5.41730233e+09  3.45377559e+09  8.20e-04 3.73e-09  2.88e+03    10s
  20   5.28312793e+09  3.68934948e+09  6.16e-04 3.73e-09  2.34e+03    10s
  21   5.19329896e+09  3.78821605e+09  4.76e-04 3.73e-09  2.06e+03    10s
  22   5.15570487e+09  3.98962963e+09  4.17e-04 2.79e-09  1.71e+03    11s
  23   5.09427285e+09  4.37475142e+09  3.27e-04 2.79e-09  1.06e+03    11s
  24   5.01219959e+09  4.46603009e+09  1.94e-04 1.86e-09  8.01e+02    11s
  25   4.97167989e+09  4.57650562e+09  1.24e-04 1.86e-09  5.79e+02    12s
  26   4.93725221e+09  4.71098153e+09  7.33e-05 1.86e-09  3.32e+02    12s
  27   4.92337226e+09  4.74874671e+09  5.42e-05 1.86e-09  2.56e+02    12s
  28   4.91443661e+09  4.77022453e+09  4.16e-05 1.86e-09  2.11e+02    13s
  29   4.90838610e+09  4.78712908e+09  3.24e-05 2.79e-09  1.78e+02    13s
  30   4.90141755e+09  4.82661487e+09  2.30e-05 1.86e-09  1.10e+02    13s
  31   4.89410887e+09  4.84610070e+09  1.33e-05 1.86e-09  7.03e+01    14s
  32   4.89003849e+09  4.85782547e+09  7.87e-06 1.86e-09  4.72e+01    14s
  33   4.88767836e+09  4.86471203e+09  4.79e-06 1.86e-09  3.36e+01    15s
  34   4.88652697e+09  4.87294635e+09  3.31e-06 1.86e-09  1.99e+01    15s
  35   4.88576314e+09  4.87700681e+09  2.35e-06 1.86e-09  1.28e+01    15s
  36   4.88528270e+09  4.87882225e+09  1.76e-06 1.86e-09  9.46e+00    15s
  37   4.88484645e+09  4.87958742e+09  1.26e-06 1.86e-09  7.70e+00    16s
  38   4.88435646e+09  4.88047699e+09  6.59e-07 1.86e-09  5.68e+00    16s
  39   4.88403008e+09  4.88205603e+09  2.85e-07 1.86e-09  2.89e+00    16s
  40   4.88384777e+09  4.88320947e+09  1.75e-07 1.86e-09  9.34e-01    17s
  41   4.88376358e+09  4.88347451e+09  3.67e-07 1.86e-09  4.23e-01    17s
  42   4.88375243e+09  4.88365555e+09  3.43e-07 2.79e-09  1.42e-01    17s
  43   4.88374527e+09  4.88371378e+09  1.31e-07 1.86e-09  4.61e-02    18s
  44   4.88374305e+09  4.88373820e+09  2.84e-08 1.86e-09  7.10e-03    18s
  45   4.88374247e+09  4.88374094e+09  7.88e-09 2.79e-09  2.23e-03    18s
  46   4.88374223e+09  4.88374201e+09  8.67e-10 2.95e-09  3.32e-04    19s
  47   4.88374222e+09  4.88374221e+09  1.97e-11 7.69e-09  9.42e-06    19s
  48   4.88374222e+09  4.88374222e+09  4.42e-09 6.78e-09  6.34e-11    19s

Barrier solved model in 48 iterations and 19.42 seconds
Optimal objective 4.88374222e+09

Crossover log...

   38471 DPushes remaining with DInf 0.0000000e+00                20s
       0 DPushes remaining with DInf 0.0000000e+00                20s
Warning: Markowitz tolerance tightened to 0.25

   61802 PPushes remaining with PInf 0.0000000e+00                20s
   21451 PPushes remaining with PInf 0.0000000e+00                27s
    3374 PPushes remaining with PInf 0.0000000e+00                30s
       0 PPushes remaining with PInf 0.0000000e+00                31s

  Push phase complete: Pinf 0.0000000e+00, Dinf 4.6132293e-09     31s

Iteration    Objective       Primal Inf.    Dual Inf.      Time
   73997    4.8837422e+09   0.000000e+00   0.000000e+00     33s

Solved with barrier
Solved in 73997 iterations and 33.44 seconds
Optimal objective  4.883742216e+09
Warning: unscaled primal violation = 0.000887123 and residual = 0.000887123
